mixintcount/benchmarks/random_v2l/4_4_1122.in
16 6
#	x1	x2	x3	x4;		0 = Real; 1 = Integer
	1	1	1	1
1	-3	-8	9	-7	771
1	-5	-9	-10	-1	300
1	4	-5	8	-5	343
1	-5	2	7	2	1050
1	-9	8	-6	3	744
1	-10	-6	-5	-6	727
1	5	-1	-3	4	764
1	10	9	2	10	855
1	1	0	0	0	1122
1	-1	0	0	0	1122
1	0	1	0	0	1122
1	0	-1	0	0	1122
1	0	0	1	0	1122
1	0	0	-1	0	1122
1	0	0	0	1	1122
1	0	0	0	-1	1122
